100
128
18
2
9
38
17
54
7
15
20
59
16
51
50
64
42
32
62
14
52
2
36
8
62
16
14
56
58
61
15
58
8
62
5
13
31
34
52
21
21
12
28
32
4
63
6
18
39
42
29
37
32
42
17
18
44
1
30
19
16
18
15
52
58
40
28
62
62
30
15
54
23
63
20
50
27
17
54
38
36
22
47
59
18
63
43
4
39
47
60
49
58
25
40
63
19
40
40
63
61
16